data/lp_files/q3/54_6.lp
\ Model foo
\ LP format - for model browsing. Use MPS format to capture full model detail.
Minimize
  z
Subject To
 allocateEach[1]: x[1,1] + x[2,1] + x[3,1] = 1
 allocateEach[2]: x[1,2] + x[2,2] + x[3,2] = 1
 allocateEach[3]: x[1,3] + x[2,3] + x[3,3] = 1
 allocateEach[4]: x[1,4] + x[2,4] + x[3,4] = 1
 allocateEach[5]: x[1,5] + x[2,5] + x[3,5] = 1
 allocateEach[6]: x[1,6] + x[2,6] + x[3,6] = 1
 allocateEach[7]: x[1,7] + x[2,7] + x[3,7] = 1
 allocateEach[8]: x[1,8] + x[2,8] + x[3,8] = 1
 allocateEach[9]: x[1,9] + x[2,9] + x[3,9] = 1
 allocateEach[10]: x[1,10] + x[2,10] + x[3,10] = 1
 allocateEach[11]: x[1,11] + x[2,11] + x[3,11] = 1
 allocateEach[12]: x[1,12] + x[2,12] + x[3,12] = 1
 allocateEach[13]: x[1,13] + x[2,13] + x[3,13] = 1
 allocateEach[14]: x[1,14] + x[2,14] + x[3,14] = 1
 allocateAllCash: cashProportion[1] + cashProportion[2] + cashProportion[3]
   = 1
 findWorstP[1,2]: z + 0.0592075075119525 cashProportion[1]
   - 0.0592075075119525 cashProportion[2] + 0.00365606358886307 x[1,1]
   + 0.0315427996269927 x[1,2] + 0.1388416051155286 x[1,3]
   + 0.1453544309418434 x[1,4] + 0.0738465637442828 x[1,5]
   + 0.0420373303334863 x[1,6] + 0.0437987536819669 x[1,7]
   + 0.011219822673515 x[1,8] + 0.0603620539084356 x[1,9]
   + 0.1116505572906644 x[1,10] + 0.0478544679465356 x[1,11]
   + 0.1427789043650735 x[1,12] + 0.03237170473216 x[1,13]
   + 0.0554774345386995 x[1,14] - 0.00365606358886307 x[2,1]
   - 0.0315427996269927 x[2,2] - 0.1388416051155286 x[2,3]
   - 0.1453544309418434 x[2,4] - 0.0738465637442828 x[2,5]
   - 0.0420373303334863 x[2,6] - 0.0437987536819669 x[2,7]
   - 0.011219822673515 x[2,8] - 0.0603620539084356 x[2,9]
   - 0.1116505572906644 x[2,10] - 0.0478544679465356 x[2,11]
   - 0.1427789043650735 x[2,12] - 0.03237170473216 x[2,13]
   - 0.0554774345386995 x[2,14] >= 0
 findWorstP[1,3]: z + 0.0592075075119525 cashProportion[1]
   - 0.0592075075119525 cashProportion[3] + 0.00365606358886307 x[1,1]
   + 0.0315427996269927 x[1,2] + 0.1388416051155286 x[1,3]
   + 0.1453544309418434 x[1,4] + 0.0738465637442828 x[1,5]
   + 0.0420373303334863 x[1,6] + 0.0437987536819669 x[1,7]
   + 0.011219822673515 x[1,8] + 0.0603620539084356 x[1,9]
   + 0.1116505572906644 x[1,10] + 0.0478544679465356 x[1,11]
   + 0.1427789043650735 x[1,12] + 0.03237170473216 x[1,13]
   + 0.0554774345386995 x[1,14] - 0.00365606358886307 x[3,1]
   - 0.0315427996269927 x[3,2] - 0.1388416051155286 x[3,3]
   - 0.1453544309418434 x[3,4] - 0.0738465637442828 x[3,5]
   - 0.0420373303334863 x[3,6] - 0.0437987536819669 x[3,7]
   - 0.011219822673515 x[3,8] - 0.0603620539084356 x[3,9]
   - 0.1116505572906644 x[3,10] - 0.0478544679465356 x[3,11]
   - 0.1427789043650735 x[3,12] - 0.03237170473216 x[3,13]
   - 0.0554774345386995 x[3,14] >= 0
 findWorstP[2,1]: z - 0.0505542004221276 cashProportion[1]
   + 0.0505542004221276 cashProportion[2] - 0.0310402790591863 x[1,1]
   - 0.0771204327439556 x[1,2] - 0.0498338030661123 x[1,3]
   - 0.0855250685641343 x[1,4] - 0.0203480656699063 x[1,5]
   - 0.0598688118499046 x[1,6] - 0.0248726666076868 x[1,7]
   - 0.1169571426765921 x[1,8] - 0.0865487911226824 x[1,9]
   - 0.0819609974343743 x[1,10] - 0.0559634998672952 x[1,11]
   - 0.1232385020790415 x[1,12] - 0.0308633393577089 x[1,13]
   - 0.1053043994792917 x[1,14] + 0.0310402790591863 x[2,1]
   + 0.0771204327439556 x[2,2] + 0.0498338030661123 x[2,3]
   + 0.0855250685641343 x[2,4] + 0.0203480656699063 x[2,5]
   + 0.0598688118499046 x[2,6] + 0.0248726666076868 x[2,7]
   + 0.1169571426765921 x[2,8] + 0.0865487911226824 x[2,9]
   + 0.0819609974343743 x[2,10] + 0.0559634998672952 x[2,11]
   + 0.1232385020790415 x[2,12] + 0.0308633393577089 x[2,13]
   + 0.1053043994792917 x[2,14] >= 0
 findWorstP[2,3]: z + 0.0505542004221276 cashProportion[2]
   - 0.0505542004221276 cashProportion[3] + 0.0310402790591863 x[2,1]
   + 0.0771204327439556 x[2,2] + 0.0498338030661123 x[2,3]
   + 0.0855250685641343 x[2,4] + 0.0203480656699063 x[2,5]
   + 0.0598688118499046 x[2,6] + 0.0248726666076868 x[2,7]
   + 0.1169571426765921 x[2,8] + 0.0865487911226824 x[2,9]
   + 0.0819609974343743 x[2,10] + 0.0559634998672952 x[2,11]
   + 0.1232385020790415 x[2,12] + 0.0308633393577089 x[2,13]
   + 0.1053043994792917 x[2,14] - 0.0310402790591863 x[3,1]
   - 0.0771204327439556 x[3,2] - 0.0498338030661123 x[3,3]
   - 0.0855250685641343 x[3,4] - 0.0203480656699063 x[3,5]
   - 0.0598688118499046 x[3,6] - 0.0248726666076868 x[3,7]
   - 0.1169571426765921 x[3,8] - 0.0865487911226824 x[3,9]
   - 0.0819609974343743 x[3,10] - 0.0559634998672952 x[3,11]
   - 0.1232385020790415 x[3,12] - 0.0308633393577089 x[3,13]
   - 0.1053043994792917 x[3,14] >= 0
 findWorstP[3,1]: z - 0.0619713072847272 cashProportion[1]
   + 0.0619713072847272 cashProportion[3] - 0.1462522851919561 x[1,1]
   - 0.0154153626870759 x[1,2] - 0.028894122021504 x[1,3]
   - 0.1278932854088557 x[1,4] - 0.0264617482105785 x[1,5]
   - 0.1280327208502463 x[1,6] - 0.0460756669661947 x[1,7]
   - 0.09766678028073 x[1,8] - 0.0376630620022929 x[1,9]
   - 0.0393207944721594 x[1,10] - 0.0147491711337651 x[1,11]
   - 0.0889598116072259 x[1,12] - 0.1274130077773991 x[1,13]
   - 0.0132308741052893 x[1,14] + 0.1462522851919561 x[3,1]
   + 0.0154153626870759 x[3,2] + 0.028894122021504 x[3,3]
   + 0.1278932854088557 x[3,4] + 0.0264617482105785 x[3,5]
   + 0.1280327208502463 x[3,6] + 0.0460756669661947 x[3,7]
   + 0.09766678028073 x[3,8] + 0.0376630620022929 x[3,9]
   + 0.0393207944721594 x[3,10] + 0.0147491711337651 x[3,11]
   + 0.0889598116072259 x[3,12] + 0.1274130077773991 x[3,13]
   + 0.0132308741052893 x[3,14] >= 0
 findWorstP[3,2]: z - 0.0619713072847272 cashProportion[2]
   + 0.0619713072847272 cashProportion[3] - 0.1462522851919561 x[2,1]
   - 0.0154153626870759 x[2,2] - 0.028894122021504 x[2,3]
   - 0.1278932854088557 x[2,4] - 0.0264617482105785 x[2,5]
   - 0.1280327208502463 x[2,6] - 0.0460756669661947 x[2,7]
   - 0.09766678028073 x[2,8] - 0.0376630620022929 x[2,9]
   - 0.0393207944721594 x[2,10] - 0.0147491711337651 x[2,11]
   - 0.0889598116072259 x[2,12] - 0.1274130077773991 x[2,13]
   - 0.0132308741052893 x[2,14] + 0.1462522851919561 x[3,1]
   + 0.0154153626870759 x[3,2] + 0.028894122021504 x[3,3]
   + 0.1278932854088557 x[3,4] + 0.0264617482105785 x[3,5]
   + 0.1280327208502463 x[3,6] + 0.0460756669661947 x[3,7]
   + 0.09766678028073 x[3,8] + 0.0376630620022929 x[3,9]
   + 0.0393207944721594 x[3,10] + 0.0147491711337651 x[3,11]
   + 0.0889598116072259 x[3,12] + 0.1274130077773991 x[3,13]
   + 0.0132308741052893 x[3,14] >= 0
Bounds
 z <= 1
 -infinity <= cashProportion[1] <= 1
 -infinity <= cashProportion[2] <= 1
 -infinity <= cashProportion[3] <= 1
Binaries
 x[1,1] x[1,2] x[1,3] x[1,4] x[1,5] x[1,6] x[1,7] x[1,8] x[1,9] x[1,10]
 x[1,11] x[1,12] x[1,13] x[1,14] x[2,1] x[2,2] x[2,3] x[2,4] x[2,5] x[2,6]
 x[2,7] x[2,8] x[2,9] x[2,10] x[2,11] x[2,12] x[2,13] x[2,14] x[3,1] x[3,2]
 x[3,3] x[3,4] x[3,5] x[3,6] x[3,7] x[3,8] x[3,9] x[3,10] x[3,11] x[3,12]
 x[3,13] x[3,14]
End
