data/mps_files/q3/54_6.mps
NAME foo
ROWS
 N  OBJ
 E  allocateEach[1]
 E  allocateEach[2]
 E  allocateEach[3]
 E  allocateEach[4]
 E  allocateEach[5]
 E  allocateEach[6]
 E  allocateEach[7]
 E  allocateEach[8]
 E  allocateEach[9]
 E  allocateEach[10]
 E  allocateEach[11]
 E  allocateEach[12]
 E  allocateEach[13]
 E  allocateEach[14]
 E  allocateAllCash
 G  findWorstP[1,2]
 G  findWorstP[1,3]
 G  findWorstP[2,1]
 G  findWorstP[2,3]
 G  findWorstP[3,1]
 G  findWorstP[3,2]
COLUMNS
    z         OBJ       1
    z         findWorstP[1,2]  1
    z         findWorstP[1,3]  1
    z         findWorstP[2,1]  1
    z         findWorstP[2,3]  1
    z         findWorstP[3,1]  1
    z         findWorstP[3,2]  1
    cashProportion[1]  allocateAllCash  1
    cashProportion[1]  findWorstP[1,2]  5.9207507511952508e-02
    cashProportion[1]  findWorstP[1,3]  5.9207507511952508e-02
    cashProportion[1]  findWorstP[2,1]  -5.0554200422127576e-02
    cashProportion[1]  findWorstP[3,1]  -6.1971307284727176e-02
    cashProportion[2]  allocateAllCash  1
    cashProportion[2]  findWorstP[1,2]  -5.9207507511952508e-02
    cashProportion[2]  findWorstP[2,1]  5.0554200422127576e-02
    cashProportion[2]  findWorstP[2,3]  5.0554200422127576e-02
    cashProportion[2]  findWorstP[3,2]  -6.1971307284727176e-02
    cashProportion[3]  allocateAllCash  1
    cashProportion[3]  findWorstP[1,3]  -5.9207507511952508e-02
    cashProportion[3]  findWorstP[2,3]  -5.0554200422127576e-02
    cashProportion[3]  findWorstP[3,1]  6.1971307284727176e-02
    cashProportion[3]  findWorstP[3,2]  6.1971307284727176e-02
    MARKER    'MARKER'                 'INTORG'
    x[1,1]    allocateEach[1]  1
    x[1,1]    findWorstP[1,2]  3.6560635888630670e-03
    x[1,1]    findWorstP[1,3]  3.6560635888630670e-03
    x[1,1]    findWorstP[2,1]  -3.1040279059186330e-02
    x[1,1]    findWorstP[3,1]  -1.4625228519195613e-01
    x[1,2]    allocateEach[2]  1
    x[1,2]    findWorstP[1,2]  0.0315427996269927
    x[1,2]    findWorstP[1,3]  0.0315427996269927
    x[1,2]    findWorstP[2,1]  -7.7120432743955608e-02
    x[1,2]    findWorstP[3,1]  -1.5415362687075884e-02
    x[1,3]    allocateEach[3]  1
    x[1,3]    findWorstP[1,2]  1.3884160511552862e-01
    x[1,3]    findWorstP[1,3]  1.3884160511552862e-01
    x[1,3]    findWorstP[2,1]  -4.9833803066112251e-02
    x[1,3]    findWorstP[3,1]  -2.8894122021504043e-02
    x[1,4]    allocateEach[4]  1
    x[1,4]    findWorstP[1,2]  1.4535443094184339e-01
    x[1,4]    findWorstP[1,3]  1.4535443094184339e-01
    x[1,4]    findWorstP[2,1]  -8.5525068564134318e-02
    x[1,4]    findWorstP[3,1]  -1.2789328540885569e-01
    x[1,5]    allocateEach[5]  1
    x[1,5]    findWorstP[1,2]  7.3846563744282764e-02
    x[1,5]    findWorstP[1,3]  7.3846563744282764e-02
    x[1,5]    findWorstP[2,1]  -2.0348065669906348e-02
    x[1,5]    findWorstP[3,1]  -2.6461748210578503e-02
    x[1,6]    allocateEach[6]  1
    x[1,6]    findWorstP[1,2]  4.2037330333486278e-02
    x[1,6]    findWorstP[1,3]  4.2037330333486278e-02
    x[1,6]    findWorstP[2,1]  -5.9868811849904578e-02
    x[1,6]    findWorstP[3,1]  -1.2803272085024633e-01
    x[1,7]    allocateEach[7]  1
    x[1,7]    findWorstP[1,2]  4.3798753681966868e-02
    x[1,7]    findWorstP[1,3]  4.3798753681966868e-02
    x[1,7]    findWorstP[2,1]  -2.4872666607686764e-02
    x[1,7]    findWorstP[3,1]  -4.6075666966194653e-02
    x[1,8]    allocateEach[8]  1
    x[1,8]    findWorstP[1,2]  1.1219822673515002e-02
    x[1,8]    findWorstP[1,3]  1.1219822673515002e-02
    x[1,8]    findWorstP[2,1]  -1.1695714267659213e-01
    x[1,8]    findWorstP[3,1]  -9.7666780280730017e-02
    x[1,9]    allocateEach[9]  1
    x[1,9]    findWorstP[1,2]  6.0362053908435583e-02
    x[1,9]    findWorstP[1,3]  6.0362053908435583e-02
    x[1,9]    findWorstP[2,1]  -8.6548791122682392e-02
    x[1,9]    findWorstP[3,1]  -3.7663062002292941e-02
    x[1,10]   allocateEach[10]  1
    x[1,10]   findWorstP[1,2]  1.1165055729066443e-01
    x[1,10]   findWorstP[1,3]  1.1165055729066443e-01
    x[1,10]   findWorstP[2,1]  -8.1960997434374322e-02
    x[1,10]   findWorstP[3,1]  -3.9320794472159394e-02
    x[1,11]   allocateEach[11]  1
    x[1,11]   findWorstP[1,2]  4.7854467946535612e-02
    x[1,11]   findWorstP[1,3]  4.7854467946535612e-02
    x[1,11]   findWorstP[2,1]  -5.5963499867295222e-02
    x[1,11]   findWorstP[3,1]  -1.4749171133765069e-02
    x[1,12]   allocateEach[12]  1
    x[1,12]   findWorstP[1,2]  1.4277890436507348e-01
    x[1,12]   findWorstP[1,3]  1.4277890436507348e-01
    x[1,12]   findWorstP[2,1]  -1.2323850207904148e-01
    x[1,12]   findWorstP[3,1]  -8.8959811607225867e-02
    x[1,13]   allocateEach[13]  1
    x[1,13]   findWorstP[1,2]  3.2371704732160035e-02
    x[1,13]   findWorstP[1,3]  3.2371704732160035e-02
    x[1,13]   findWorstP[2,1]  -3.0863339357708883e-02
    x[1,13]   findWorstP[3,1]  -1.2741300777739908e-01
    x[1,14]   allocateEach[14]  1
    x[1,14]   findWorstP[1,2]  0.0554774345386995
    x[1,14]   findWorstP[1,3]  0.0554774345386995
    x[1,14]   findWorstP[2,1]  -1.0530439947929174e-01
    x[1,14]   findWorstP[3,1]  -1.3230874105289251e-02
    x[2,1]    allocateEach[1]  1
    x[2,1]    findWorstP[1,2]  -3.6560635888630670e-03
    x[2,1]    findWorstP[2,1]  3.1040279059186330e-02
    x[2,1]    findWorstP[2,3]  3.1040279059186330e-02
    x[2,1]    findWorstP[3,2]  -1.4625228519195613e-01
    x[2,2]    allocateEach[2]  1
    x[2,2]    findWorstP[1,2]  -0.0315427996269927
    x[2,2]    findWorstP[2,1]  7.7120432743955608e-02
    x[2,2]    findWorstP[2,3]  7.7120432743955608e-02
    x[2,2]    findWorstP[3,2]  -1.5415362687075884e-02
    x[2,3]    allocateEach[3]  1
    x[2,3]    findWorstP[1,2]  -1.3884160511552862e-01
    x[2,3]    findWorstP[2,1]  4.9833803066112251e-02
    x[2,3]    findWorstP[2,3]  4.9833803066112251e-02
    x[2,3]    findWorstP[3,2]  -2.8894122021504043e-02
    x[2,4]    allocateEach[4]  1
    x[2,4]    findWorstP[1,2]  -1.4535443094184339e-01
    x[2,4]    findWorstP[2,1]  8.5525068564134318e-02
    x[2,4]    findWorstP[2,3]  8.5525068564134318e-02
    x[2,4]    findWorstP[3,2]  -1.2789328540885569e-01
    x[2,5]    allocateEach[5]  1
    x[2,5]    findWorstP[1,2]  -7.3846563744282764e-02
    x[2,5]    findWorstP[2,1]  2.0348065669906348e-02
    x[2,5]    findWorstP[2,3]  2.0348065669906348e-02
    x[2,5]    findWorstP[3,2]  -2.6461748210578503e-02
    x[2,6]    allocateEach[6]  1
    x[2,6]    findWorstP[1,2]  -4.2037330333486278e-02
    x[2,6]    findWorstP[2,1]  5.9868811849904578e-02
    x[2,6]    findWorstP[2,3]  5.9868811849904578e-02
    x[2,6]    findWorstP[3,2]  -1.2803272085024633e-01
    x[2,7]    allocateEach[7]  1
    x[2,7]    findWorstP[1,2]  -4.3798753681966868e-02
    x[2,7]    findWorstP[2,1]  2.4872666607686764e-02
    x[2,7]    findWorstP[2,3]  2.4872666607686764e-02
    x[2,7]    findWorstP[3,2]  -4.6075666966194653e-02
    x[2,8]    allocateEach[8]  1
    x[2,8]    findWorstP[1,2]  -1.1219822673515002e-02
    x[2,8]    findWorstP[2,1]  1.1695714267659213e-01
    x[2,8]    findWorstP[2,3]  1.1695714267659213e-01
    x[2,8]    findWorstP[3,2]  -9.7666780280730017e-02
    x[2,9]    allocateEach[9]  1
    x[2,9]    findWorstP[1,2]  -6.0362053908435583e-02
    x[2,9]    findWorstP[2,1]  8.6548791122682392e-02
    x[2,9]    findWorstP[2,3]  8.6548791122682392e-02
    x[2,9]    findWorstP[3,2]  -3.7663062002292941e-02
    x[2,10]   allocateEach[10]  1
    x[2,10]   findWorstP[1,2]  -1.1165055729066443e-01
    x[2,10]   findWorstP[2,1]  8.1960997434374322e-02
    x[2,10]   findWorstP[2,3]  8.1960997434374322e-02
    x[2,10]   findWorstP[3,2]  -3.9320794472159394e-02
    x[2,11]   allocateEach[11]  1
    x[2,11]   findWorstP[1,2]  -4.7854467946535612e-02
    x[2,11]   findWorstP[2,1]  5.5963499867295222e-02
    x[2,11]   findWorstP[2,3]  5.5963499867295222e-02
    x[2,11]   findWorstP[3,2]  -1.4749171133765069e-02
    x[2,12]   allocateEach[12]  1
    x[2,12]   findWorstP[1,2]  -1.4277890436507348e-01
    x[2,12]   findWorstP[2,1]  1.2323850207904148e-01
    x[2,12]   findWorstP[2,3]  1.2323850207904148e-01
    x[2,12]   findWorstP[3,2]  -8.8959811607225867e-02
    x[2,13]   allocateEach[13]  1
    x[2,13]   findWorstP[1,2]  -3.2371704732160035e-02
    x[2,13]   findWorstP[2,1]  3.0863339357708883e-02
    x[2,13]   findWorstP[2,3]  3.0863339357708883e-02
    x[2,13]   findWorstP[3,2]  -1.2741300777739908e-01
    x[2,14]   allocateEach[14]  1
    x[2,14]   findWorstP[1,2]  -0.0554774345386995
    x[2,14]   findWorstP[2,1]  1.0530439947929174e-01
    x[2,14]   findWorstP[2,3]  1.0530439947929174e-01
    x[2,14]   findWorstP[3,2]  -1.3230874105289251e-02
    x[3,1]    allocateEach[1]  1
    x[3,1]    findWorstP[1,3]  -3.6560635888630670e-03
    x[3,1]    findWorstP[2,3]  -3.1040279059186330e-02
    x[3,1]    findWorstP[3,1]  1.4625228519195613e-01
    x[3,1]    findWorstP[3,2]  1.4625228519195613e-01
    x[3,2]    allocateEach[2]  1
    x[3,2]    findWorstP[1,3]  -0.0315427996269927
    x[3,2]    findWorstP[2,3]  -7.7120432743955608e-02
    x[3,2]    findWorstP[3,1]  1.5415362687075884e-02
    x[3,2]    findWorstP[3,2]  1.5415362687075884e-02
    x[3,3]    allocateEach[3]  1
    x[3,3]    findWorstP[1,3]  -1.3884160511552862e-01
    x[3,3]    findWorstP[2,3]  -4.9833803066112251e-02
    x[3,3]    findWorstP[3,1]  2.8894122021504043e-02
    x[3,3]    findWorstP[3,2]  2.8894122021504043e-02
    x[3,4]    allocateEach[4]  1
    x[3,4]    findWorstP[1,3]  -1.4535443094184339e-01
    x[3,4]    findWorstP[2,3]  -8.5525068564134318e-02
    x[3,4]    findWorstP[3,1]  1.2789328540885569e-01
    x[3,4]    findWorstP[3,2]  1.2789328540885569e-01
    x[3,5]    allocateEach[5]  1
    x[3,5]    findWorstP[1,3]  -7.3846563744282764e-02
    x[3,5]    findWorstP[2,3]  -2.0348065669906348e-02
    x[3,5]    findWorstP[3,1]  2.6461748210578503e-02
    x[3,5]    findWorstP[3,2]  2.6461748210578503e-02
    x[3,6]    allocateEach[6]  1
    x[3,6]    findWorstP[1,3]  -4.2037330333486278e-02
    x[3,6]    findWorstP[2,3]  -5.9868811849904578e-02
    x[3,6]    findWorstP[3,1]  1.2803272085024633e-01
    x[3,6]    findWorstP[3,2]  1.2803272085024633e-01
    x[3,7]    allocateEach[7]  1
    x[3,7]    findWorstP[1,3]  -4.3798753681966868e-02
    x[3,7]    findWorstP[2,3]  -2.4872666607686764e-02
    x[3,7]    findWorstP[3,1]  4.6075666966194653e-02
    x[3,7]    findWorstP[3,2]  4.6075666966194653e-02
    x[3,8]    allocateEach[8]  1
    x[3,8]    findWorstP[1,3]  -1.1219822673515002e-02
    x[3,8]    findWorstP[2,3]  -1.1695714267659213e-01
    x[3,8]    findWorstP[3,1]  9.7666780280730017e-02
    x[3,8]    findWorstP[3,2]  9.7666780280730017e-02
    x[3,9]    allocateEach[9]  1
    x[3,9]    findWorstP[1,3]  -6.0362053908435583e-02
    x[3,9]    findWorstP[2,3]  -8.6548791122682392e-02
    x[3,9]    findWorstP[3,1]  3.7663062002292941e-02
    x[3,9]    findWorstP[3,2]  3.7663062002292941e-02
    x[3,10]   allocateEach[10]  1
    x[3,10]   findWorstP[1,3]  -1.1165055729066443e-01
    x[3,10]   findWorstP[2,3]  -8.1960997434374322e-02
    x[3,10]   findWorstP[3,1]  3.9320794472159394e-02
    x[3,10]   findWorstP[3,2]  3.9320794472159394e-02
    x[3,11]   allocateEach[11]  1
    x[3,11]   findWorstP[1,3]  -4.7854467946535612e-02
    x[3,11]   findWorstP[2,3]  -5.5963499867295222e-02
    x[3,11]   findWorstP[3,1]  1.4749171133765069e-02
    x[3,11]   findWorstP[3,2]  1.4749171133765069e-02
    x[3,12]   allocateEach[12]  1
    x[3,12]   findWorstP[1,3]  -1.4277890436507348e-01
    x[3,12]   findWorstP[2,3]  -1.2323850207904148e-01
    x[3,12]   findWorstP[3,1]  8.8959811607225867e-02
    x[3,12]   findWorstP[3,2]  8.8959811607225867e-02
    x[3,13]   allocateEach[13]  1
    x[3,13]   findWorstP[1,3]  -3.2371704732160035e-02
    x[3,13]   findWorstP[2,3]  -3.0863339357708883e-02
    x[3,13]   findWorstP[3,1]  1.2741300777739908e-01
    x[3,13]   findWorstP[3,2]  1.2741300777739908e-01
    x[3,14]   allocateEach[14]  1
    x[3,14]   findWorstP[1,3]  -0.0554774345386995
    x[3,14]   findWorstP[2,3]  -1.0530439947929174e-01
    x[3,14]   findWorstP[3,1]  1.3230874105289251e-02
    x[3,14]   findWorstP[3,2]  1.3230874105289251e-02
    MARKER    'MARKER'                 'INTEND'
RHS
    RHS1      allocateEach[1]  1
    RHS1      allocateEach[2]  1
    RHS1      allocateEach[3]  1
    RHS1      allocateEach[4]  1
    RHS1      allocateEach[5]  1
    RHS1      allocateEach[6]  1
    RHS1      allocateEach[7]  1
    RHS1      allocateEach[8]  1
    RHS1      allocateEach[9]  1
    RHS1      allocateEach[10]  1
    RHS1      allocateEach[11]  1
    RHS1      allocateEach[12]  1
    RHS1      allocateEach[13]  1
    RHS1      allocateEach[14]  1
    RHS1      allocateAllCash  1
BOUNDS
 UP BND1      z         1
 MI BND1      cashProportion[1]
 UP BND1      cashProportion[1]  1
 MI BND1      cashProportion[2]
 UP BND1      cashProportion[2]  1
 MI BND1      cashProportion[3]
 UP BND1      cashProportion[3]  1
 BV BND1      x[1,1]  
 BV BND1      x[1,2]  
 BV BND1      x[1,3]  
 BV BND1      x[1,4]  
 BV BND1      x[1,5]  
 BV BND1      x[1,6]  
 BV BND1      x[1,7]  
 BV BND1      x[1,8]  
 BV BND1      x[1,9]  
 BV BND1      x[1,10] 
 BV BND1      x[1,11] 
 BV BND1      x[1,12] 
 BV BND1      x[1,13] 
 BV BND1      x[1,14] 
 BV BND1      x[2,1]  
 BV BND1      x[2,2]  
 BV BND1      x[2,3]  
 BV BND1      x[2,4]  
 BV BND1      x[2,5]  
 BV BND1      x[2,6]  
 BV BND1      x[2,7]  
 BV BND1      x[2,8]  
 BV BND1      x[2,9]  
 BV BND1      x[2,10] 
 BV BND1      x[2,11] 
 BV BND1      x[2,12] 
 BV BND1      x[2,13] 
 BV BND1      x[2,14] 
 BV BND1      x[3,1]  
 BV BND1      x[3,2]  
 BV BND1      x[3,3]  
 BV BND1      x[3,4]  
 BV BND1      x[3,5]  
 BV BND1      x[3,6]  
 BV BND1      x[3,7]  
 BV BND1      x[3,8]  
 BV BND1      x[3,9]  
 BV BND1      x[3,10] 
 BV BND1      x[3,11] 
 BV BND1      x[3,12] 
 BV BND1      x[3,13] 
 BV BND1      x[3,14] 
ENDATA
